Traveling Salesman Problem/TSP_generados/Aleatorio1621103459_14.tsp
NAME: Aleatorio1621103459_14.tsp
COMMENT: Randomly generated scenario
TYPE: TSP
DIMENSION: 14
EDGE_WEIGHT_TYPE: ATT
NODE_COORD_SECTION
1 24.41 19.02
2 38.18 9.74
3 42.59 24.08
4 40.95 2.23
5 46.33 1.57
6 18.78 8.66
7 45.16 40.96
8 17.55 40.15
9 13.24 27.57
10 46.37 21.37
11 47.27 8.73
12 42.24 6.85
13 36.06 11.64
14 42.47 36.66
