Traveling Salesman Problem/TSP_generados/Aleatorio1621103459_14.opt.tour
NAME: Aleatorio1621103459_14.opt.tour
COMMENT: Optimal solution for Aleatorio1621103459_14 (144.55701158436634)
TYPE: TOUR
DIMENSION: 14
TOUR_SECTION
1 9 8 7 14 3 10 11 5 4 12 2 13 6
-1
EOF
